NAME : in_house_7_16
TYPE : TSP
DIMENSION : 7
EDGE_WEIGHT_TYPE : EXPLICIT
EDGE_WEIGHT_FORMAT : UPPER_ROW
COMMENT : INVERSION_SHIFT=3
EDGE_WEIGHT_SECTION
4
45
16
18
4
9
5
47
22
14
5
41
2
34
23
7
13
28
39
42
47
